NAME: Tnm196
COMMENT: Imported from tnm log files (not double checked for validity should be 3081566)
TYPE: TOUR
DIMENSION: 196
TOUR_SECTION:
1
4
7
10
13
167
170
16
19
22
25
28
31
34
37
40
43
46
49
52
55
58
61
64
67
70
73
76
79
82
85
88
91
94
97
100
103
106
109
112
115
118
121
124
127
130
133
136
186
183
180
177
174
171
168
139
142
145
148
151
154
157
160
2
5
165
8
11
14
17
20
23
26
29
32
35
38
41
44
47
50
53
56
59
62
65
68
71
74
77
80
83
86
89
92
95
98
101
104
107
110
113
116
119
122
125
128
131
134
137
140
143
169
166
146
149
152
155
158
161
3
6
163
9
12
15
18
21
24
27
30
33
36
39
42
45
48
51
54
57
60
63
66
69
72
75
78
81
172
175
178
181
184
187
190
193
196
195
192
189
194
191
188
185
182
179
176
173
84
87
90
93
96
99
102
105
108
111
114
117
120
123
126
129
132
135
138
141
144
147
150
153
164
156
159
162
-1
EOF
